c turning on binary mode checking
c parsing input formula with 932 variables and 2968 clauses
c finished parsing, read 79809443 bytes from proof file
c detected empty clause; start verification via backward checking
c 2344 of 2968 clauses in core                            
c 608437 of 1401864 lemmas in core using 24339891 resolution steps
c 0 RAT lemmas in core; 506276 redundant literals in core lemmas
s VERIFIED
c verification time: 165.629 seconds
